presolving:
(round 1, fast)       110 del vars, 55706 del conss, 0 add conss, 0 chg bounds, 0 chg sides, 0 chg coeffs, 0 upgd conss, 0 impls, 0 clqs
   (1.3s) running MILP presolver
   (1.5s) MILP presolver found nothing
(round 2, exhaustive) 110 del vars, 55706 del conss, 0 add conss, 0 chg bounds, 0 chg sides, 0 chg coeffs, 1126 upgd conss, 0 impls, 0 clqs
   (1.9s) probing: 51/1125 (4.5%) - 0 fixings, 0 aggregations, 0 implications, 0 bound changes
   (1.9s) probing aborted: 50/50 successive totally useless probings
   (2.6s) symmetry computation started: requiring (bin +, int -, cont +), (fixed: bin -, int +, cont -)
   (2.8s) no symmetry present
presolving (3 rounds: 3 fast, 2 medium, 2 exhaustive):
 110 deleted vars, 55706 deleted constraints, 0 added constraints, 0 tightened bounds, 0 added holes, 0 changed sides, 0 changed coefficients
 0 implications, 0 cliques
presolved problem has 1125 variables (1125 bin, 0 int, 0 impl, 0 cont) and 1126 constraints
      1 constraints of type <knapsack>
   1125 constraints of type <logicor>
transformed objective value is always integral (scale: 1)
Presolving Time: 2.85

 time | node  | left  |LP iter|LP it/n|mem/heur|mdpt |vars |cons |rows |cuts |sepa|confs|strbr|  dualbound   | primalbound  |  gap   | compl. 
p 3.5s|     1 |     0 |     0 |     - |   locks|   0 |1125 |1126 |1126 |   0 |  0 |   0 |   0 | 0.000000e+00 | 9.700000e+01 |    Inf | unknown
  3.6s|     1 |     0 |   378 |     - |   491M |   0 |1125 |1126 |1126 |   0 |  0 |   0 |   0 | 3.938311e+00 | 9.700000e+01 |2362.98%| unknown
r 3.6s|     1 |     0 |   378 |     - |rounding|   0 |1125 |1126 |1126 |   0 |  0 |   0 |   0 | 3.938311e+00 | 5.300000e+01 |1245.75%| unknown
r 3.6s|     1 |     0 |   378 |     - |shifting|   0 |1125 |1126 |1126 |   0 |  0 |   0 |   0 | 3.938311e+00 | 5.200000e+01 |1220.36%| unknown
i 3.6s|     1 |     0 |   378 |     - |  oneopt|   0 |1125 |1126 |1126 |   0 |  0 |   0 |   0 | 3.938311e+00 | 1.000000e+01 | 153.92%| unknown
  3.7s|     1 |     0 |   378 |     - |   492M |   0 |1125 |1126 |1126 |   0 |  2 |   0 |   0 | 3.938311e+00 | 1.000000e+01 | 153.92%| unknown
  3.7s|     1 |     0 |   378 |     - |   492M |   0 |1125 |1126 |1126 |   0 |  2 |   0 |   0 | 3.938311e+00 | 1.000000e+01 | 153.92%| unknown
L13.2s|     1 |     0 |  4635 |     - |    rens|   0 |1125 |1126 |1126 |   0 |  4 |   0 |   0 | 3.938311e+00 | 8.000000e+00 | 103.13%| unknown
(run 1, node 1) restarting after 910 global fixings of integer variables

presolving:
(round 1, fast)       910 del vars, 0 del conss, 0 add conss, 0 chg bounds, 0 chg sides, 460615 chg coeffs, 0 upgd conss, 0 impls, 0 clqs
   (14.1s) running MILP presolver
   (14.1s) MILP presolver found nothing
presolving (2 rounds: 2 fast, 1 medium, 1 exhaustive):
 910 deleted vars, 0 deleted constraints, 0 added constraints, 0 tightened bounds, 0 added holes, 0 changed sides, 460615 changed coefficients
 0 implications, 0 cliques
presolved problem has 215 variables (215 bin, 0 int, 0 impl, 0 cont) and 1126 constraints
      1 constraints of type <knapsack>
   1125 constraints of type <logicor>
transformed objective value is always integral (scale: 1)
Presolving Time: 3.67
transformed 6/7 original solutions to the transformed problem space

 time | node  | left  |LP iter|LP it/n|mem/heur|mdpt |vars |cons |rows |cuts |sepa|confs|strbr|  dualbound   | primalbound  |  gap   | compl. 
 14.3s|     1 |     0 |  4871 |     - |   494M |   0 | 215 |1126 |1126 |   0 |  0 |   0 |   0 | 3.938311e+00 | 8.000000e+00 | 103.13%| unknown
 14.3s|     1 |     0 |  4871 |     - |   494M |   0 | 215 |1126 |1126 |   0 |  0 |   0 |   0 | 3.938311e+00 | 8.000000e+00 | 103.13%| unknown
 14.4s|     1 |     0 |  4897 |     - |   494M |   0 | 215 |1126 |1127 |   1 |  1 |   0 |   0 | 3.974084e+00 | 8.000000e+00 | 101.30%| unknown
 14.4s|     1 |     0 |  4937 |     - |   494M |   0 | 215 |1126 |1128 |   2 |  2 |   0 |   0 | 3.991956e+00 | 8.000000e+00 | 100.40%| unknown
 14.4s|     1 |     0 |  4937 |     - |   494M |   0 | 215 |1126 |1128 |   2 |  2 |   0 |   0 | 3.991956e+00 | 8.000000e+00 | 100.40%| unknown
 14.5s|     1 |     0 |  4967 |     - |   495M |   0 | 215 |1126 |1129 |   3 |  3 |   0 |   0 | 4.005384e+00 | 8.000000e+00 |  99.73%| unknown
 14.5s|     1 |     0 |  4967 |     - |   495M |   0 | 215 |1126 |1129 |   3 |  3 |   0 |   0 | 4.005384e+00 | 8.000000e+00 |  99.73%| unknown
 14.6s|     1 |     0 |  4990 |     - |   495M |   0 | 215 |1126 |1130 |   4 |  4 |   0 |   0 | 4.016866e+00 | 8.000000e+00 |  99.16%| unknown
 14.7s|     1 |     0 |  5014 |     - |   495M |   0 | 215 |1126 |1131 |   5 |  5 |   0 |   0 | 4.021984e+00 | 8.000000e+00 |  98.91%| unknown
 14.7s|     1 |     0 |  5044 |     - |   496M |   0 | 215 |1126 |1132 |   6 |  6 |   0 |   0 | 4.027349e+00 | 8.000000e+00 |  98.64%| unknown
 14.8s|     1 |     0 |  5071 |     - |   497M |   0 | 215 |1126 |1133 |   7 |  7 |   0 |   0 | 4.034291e+00 | 8.000000e+00 |  98.30%| unknown
 14.8s|     1 |     0 |  5095 |     - |   497M |   0 | 215 |1126 |1134 |   8 |  8 |   0 |   0 | 4.038030e+00 | 8.000000e+00 |  98.12%| unknown
 14.9s|     1 |     0 |  5125 |     - |   499M |   0 | 215 |1126 |1135 |   9 |  9 |   0 |   0 | 4.043864e+00 | 8.000000e+00 |  97.83%| unknown
 15.0s|     1 |     0 |  5148 |     - |   500M |   0 | 215 |1126 |1136 |  10 | 10 |   0 |   0 | 4.049005e+00 | 8.000000e+00 |  97.58%| unknown
 15.0s|     1 |     0 |  5182 |     - |   500M |   0 | 215 |1126 |1137 |  11 | 11 |   0 |   0 | 4.051744e+00 | 8.000000e+00 |  97.45%| unknown
 time | node  | left  |LP iter|LP it/n|mem/heur|mdpt |vars |cons |rows |cuts |sepa|confs|strbr|  dualbound   | primalbound  |  gap   | compl. 
 15.0s|     1 |     0 |  5213 |     - |   500M |   0 | 215 |1126 |1138 |  12 | 12 |   0 |   0 | 4.053601e+00 | 8.000000e+00 |  97.36%| unknown
 15.1s|     1 |     0 |  5228 |     - |   500M |   0 | 215 |1126 |1139 |  13 | 13 |   0 |   0 | 4.055434e+00 | 8.000000e+00 |  97.27%| unknown
 15.1s|     1 |     0 |  5255 |     - |   500M |   0 | 215 |1126 |1140 |  14 | 14 |   0 |   0 | 4.058374e+00 | 8.000000e+00 |  97.12%| unknown
 15.1s|     1 |     0 |  5288 |     - |   501M |   0 | 215 |1126 |1141 |  15 | 15 |   0 |   0 | 4.062889e+00 | 8.000000e+00 |  96.90%| unknown
 15.1s|     1 |     0 |  5288 |     - |   501M |   0 | 215 |1126 |1141 |  15 | 15 |   0 |   0 | 4.062889e+00 | 8.000000e+00 |  96.90%| unknown
 15.2s|     1 |     0 |  5316 |     - |   501M |   0 | 215 |1126 |1142 |  16 | 16 |   0 |   0 | 4.077136e+00 | 8.000000e+00 |  96.22%| unknown
 15.2s|     1 |     0 |  5344 |     - |   501M |   0 | 215 |1126 |1143 |  17 | 17 |   0 |   0 | 4.086727e+00 | 8.000000e+00 |  95.76%| unknown
 15.2s|     1 |     0 |  5344 |     - |   501M |   0 | 215 |1126 |1143 |  17 | 17 |   0 |   0 | 4.086727e+00 | 8.000000e+00 |  95.76%| unknown
 15.3s|     1 |     0 |  5369 |     - |   501M |   0 | 215 |1126 |1144 |  18 | 18 |   0 |   0 | 4.096301e+00 | 8.000000e+00 |  95.30%| unknown
 15.3s|     1 |     0 |  5391 |     - |   501M |   0 | 215 |1126 |1145 |  19 | 19 |   0 |   0 | 4.099887e+00 | 8.000000e+00 |  95.13%| unknown
 15.3s|     1 |     0 |  5411 |     - |   501M |   0 | 215 |1126 |1146 |  20 | 20 |   0 |   0 | 4.102039e+00 | 8.000000e+00 |  95.02%| unknown
(run 2, node 1) restarting after 70 global fixings of integer variables

(restart) converted 20 cuts from the global cut pool into linear constraints

presolving:
(round 1, fast)       70 del vars, 0 del conss, 0 add conss, 0 chg bounds, 0 chg sides, 35236 chg coeffs, 0 upgd conss, 0 impls, 0 clqs
   (18.6s) running MILP presolver
   (18.6s) MILP presolver found nothing
(round 2, exhaustive) 70 del vars, 0 del conss, 0 add conss, 0 chg bounds, 0 chg sides, 35236 chg coeffs, 20 upgd conss, 0 impls, 0 clqs
presolving (3 rounds: 3 fast, 2 medium, 2 exhaustive):
 70 deleted vars, 0 deleted constraints, 0 added constraints, 0 tightened bounds, 0 added holes, 0 changed sides, 35236 changed coefficients
 0 implications, 0 cliques
presolved problem has 145 variables (145 bin, 0 int, 0 impl, 0 cont) and 1146 constraints
     21 constraints of type <knapsack>
   1125 constraints of type <logicor>
transformed objective value is always integral (scale: 1)
Presolving Time: 3.92
transformed 7/9 original solutions to the transformed problem space

 time | node  | left  |LP iter|LP it/n|mem/heur|mdpt |vars |cons |rows |cuts |sepa|confs|strbr|  dualbound   | primalbound  |  gap   | compl. 
 18.8s|     1 |     0 |  6296 |     - |   500M |   0 | 145 |1146 |1146 |   0 |  0 |   0 |   0 | 4.102039e+00 | 8.000000e+00 |  95.02%| unknown
 18.9s|     1 |     0 |  6315 |     - |   500M |   0 | 145 |1146 |1147 |   1 |  1 |   0 |   0 | 4.104726e+00 | 8.000000e+00 |  94.90%| unknown
 19.0s|     1 |     0 |  6337 |     - |   500M |   0 | 145 |1146 |1148 |   2 |  2 |   0 |   0 | 4.106240e+00 | 8.000000e+00 |  94.83%| unknown
 19.2s|     1 |     0 |  6361 |     - |   501M |   0 | 145 |1146 |1149 |   3 |  3 |   0 |   0 | 4.108089e+00 | 8.000000e+00 |  94.74%| unknown
 19.3s|     1 |     0 |  6376 |     - |   501M |   0 | 145 |1146 |1150 |   4 |  4 |   0 |   0 | 4.109457e+00 | 8.000000e+00 |  94.67%| unknown
 19.5s|     1 |     0 |  6385 |     - |   501M |   0 | 145 |1146 |1151 |   5 |  5 |   0 |   0 | 4.110097e+00 | 8.000000e+00 |  94.64%| unknown
 19.6s|     1 |     0 |  6398 |     - |   501M |   0 | 145 |1146 |1152 |   6 |  6 |   0 |   0 | 4.110756e+00 | 8.000000e+00 |  94.61%| unknown
 19.7s|     1 |     0 |  6421 |     - |   501M |   0 | 145 |1146 |1153 |   7 |  7 |   0 |   0 | 4.112057e+00 | 8.000000e+00 |  94.55%| unknown
 19.8s|     1 |     0 |  6444 |     - |   502M |   0 | 145 |1146 |1154 |   8 |  8 |   0 |   0 | 4.122092e+00 | 8.000000e+00 |  94.08%| unknown
 19.8s|     1 |     0 |  6481 |     - |   502M |   0 | 145 |1146 |1155 |   9 |  9 |   0 |   0 | 4.130316e+00 | 8.000000e+00 |  93.69%| unknown
 19.9s|     1 |     0 |  6508 |     - |   502M |   0 | 145 |1146 |1156 |  10 | 10 |   0 |   0 | 4.133609e+00 | 8.000000e+00 |  93.54%| unknown
 19.9s|     1 |     0 |  6519 |     - |   503M |   0 | 145 |1146 |1157 |  11 | 11 |   0 |   0 | 4.134236e+00 | 8.000000e+00 |  93.51%| unknown
 20.0s|     1 |     0 |  6532 |     - |   504M |   0 | 145 |1146 |1158 |  12 | 12 |   0 |   0 | 4.135144e+00 | 8.000000e+00 |  93.46%| unknown
 20.0s|     1 |     0 |  6547 |     - |   504M |   0 | 145 |1146 |1157 |  13 | 13 |   0 |   0 | 4.135798e+00 | 8.000000e+00 |  93.43%| unknown
 20.0s|     1 |     0 |  6556 |     - |   504M |   0 | 145 |1146 |1158 |  14 | 14 |   0 |   0 | 4.136492e+00 | 8.000000e+00 |  93.40%| unknown
 time | node  | left  |LP iter|LP it/n|mem/heur|mdpt |vars |cons |rows |cuts |sepa|confs|strbr|  dualbound   | primalbound  |  gap   | compl. 
 20.1s|     1 |     0 |  6602 |     - |   504M |   0 | 145 |1146 |1159 |  15 | 15 |   0 |   0 | 4.141535e+00 | 8.000000e+00 |  93.17%| unknown
 20.1s|     1 |     0 |  6630 |     - |   504M |   0 | 145 |1146 |1160 |  16 | 16 |   0 |   0 | 4.143717e+00 | 8.000000e+00 |  93.06%| unknown
 20.1s|     1 |     0 |  6643 |     - |   504M |   0 | 145 |1146 |1161 |  17 | 17 |   0 |   0 | 4.144167e+00 | 8.000000e+00 |  93.04%| unknown
 20.2s|     1 |     0 |  6663 |     - |   504M |   0 | 145 |1146 |1162 |  18 | 18 |   0 |   0 | 4.145846e+00 | 8.000000e+00 |  92.96%| unknown
 20.2s|     1 |     0 |  6663 |     - |   504M |   0 | 145 |1146 |1162 |  18 | 18 |   0 |   0 | 4.145846e+00 | 8.000000e+00 |  92.96%| unknown
 20.2s|     1 |     0 |  6678 |     - |   504M |   0 | 145 |1146 |1160 |  19 | 19 |   0 |   0 | 4.146276e+00 | 8.000000e+00 |  92.94%| unknown
 20.2s|     1 |     0 |  6688 |     - |   504M |   0 | 145 |1146 |1161 |  20 | 20 |   0 |   0 | 4.146526e+00 | 8.000000e+00 |  92.93%| unknown
 20.3s|     1 |     0 |  6691 |     - |   504M |   0 | 145 |1146 |1162 |  21 | 21 |   0 |   0 | 4.146550e+00 | 8.000000e+00 |  92.93%| unknown
 20.3s|     1 |     0 |  6706 |     - |   504M |   0 | 145 |1146 |1163 |  22 | 22 |   0 |   0 | 4.147113e+00 | 8.000000e+00 |  92.91%| unknown
 20.3s|     1 |     0 |  6722 |     - |   504M |   0 | 145 |1146 |1164 |  23 | 23 |   0 |   0 | 4.147552e+00 | 8.000000e+00 |  92.88%| unknown
 20.3s|     1 |     0 |  6731 |     - |   504M |   0 | 145 |1146 |1165 |  24 | 24 |   0 |   0 | 4.147773e+00 | 8.000000e+00 |  92.87%| unknown
 20.4s|     1 |     0 |  6742 |     - |   504M |   0 | 145 |1146 |1159 |  25 | 25 |   0 |   0 | 4.148279e+00 | 8.000000e+00 |  92.85%| unknown
 20.5s|     1 |     0 |  6763 |     - |   504M |   0 | 145 |1146 |1160 |  26 | 26 |   0 |   0 | 4.149005e+00 | 8.000000e+00 |  92.82%| unknown
 24.3s|     1 |     2 |  6763 |     - |   504M |   0 | 145 |1146 |1160 |  26 | 28 |   0 |  26 | 4.168156e+00 | 8.000000e+00 |  91.93%| unknown
 32.1s|   100 |    27 | 14957 | 130.2 |   509M |  17 | 145 |1283 |1149 |  53 |  0 | 158 | 389 | 4.632259e+00 | 8.000000e+00 |  72.70%|  16.93%
 time | node  | left  |LP iter|LP it/n|mem/heur|mdpt |vars |cons |rows |cuts |sepa|confs|strbr|  dualbound   | primalbound  |  gap   | compl. 
 34.9s|   200 |    45 | 20354 |  92.3 |   507M |  21 | 145 |1333 |1154 |  73 |  2 | 230 | 500 | 4.898659e+00 | 8.000000e+00 |  63.31%|  23.18%
 40.9s|   300 |   105 | 29773 |  92.9 |   509M |  22 | 145 |1389 |1154 | 125 |  1 | 298 | 612 | 5.236075e+00 | 8.000000e+00 |  52.79%|  30.21%
 44.7s|   400 |   181 | 38725 |  92.1 |   509M |  25 | 145 |1421 |1154 | 160 |  2 | 337 | 648 | 5.372788e+00 | 8.000000e+00 |  48.90%|  32.51%
 48.0s|   500 |   247 | 46447 |  89.1 |   509M |  26 | 145 |1449 |1154 | 197 |  1 | 381 | 693 | 5.499637e+00 | 8.000000e+00 |  45.46%|  34.53%
 50.6s|   600 |   293 | 53887 |  86.7 |   510M |  28 | 145 |1481 |1149 | 214 |  1 | 427 | 748 | 5.511109e+00 | 8.000000e+00 |  45.16%|  35.28%
 52.6s|   700 |   337 | 60519 |  83.8 |   510M |  28 | 145 |1491 |1154 | 257 |  0 | 439 | 758 | 5.679375e+00 | 8.000000e+00 |  40.86%|  38.68%
 55.6s|   800 |   381 | 66803 |  81.1 |   512M |  28 | 145 |1507 |1154 | 295 |  2 | 473 | 790 | 5.721647e+00 | 8.000000e+00 |  39.82%|  40.33%
 59.0s|   900 |   413 | 73832 |  79.9 |   513M |  28 | 145 |1512 |1154 | 340 |  1 | 491 | 811 | 5.809070e+00 | 8.000000e+00 |  37.72%|  42.40%
 60.7s|  1000 |   447 | 79181 |  77.3 |   513M |  28 | 145 |1519 |1154 | 369 |  6 | 505 | 823 | 5.831114e+00 | 8.000000e+00 |  37.20%|  43.23%
 62.8s|  1100 |   471 | 84783 |  75.4 |   513M |  28 | 145 |1525 |1154 | 409 |  0 | 519 | 838 | 5.857826e+00 | 8.000000e+00 |  36.57%|  44.89%
 65.1s|  1200 |   503 | 90737 |  74.0 |   513M |  28 | 145 |1529 |1154 | 451 |  0 | 528 | 845 | 5.963028e+00 | 8.000000e+00 |  34.16%|  46.07%
 66.7s|  1300 |   529 | 94970 |  71.6 |   513M |  28 | 145 |1530 |1154 | 456 |  1 | 536 | 850 | 6.019630e+00 | 8.000000e+00 |  32.90%|  47.47%
 68.7s|  1400 |   555 | 99525 |  69.7 |   513M |  28 | 145 |1535 |1154 | 472 |  0 | 549 | 862 | 6.084243e+00 | 8.000000e+00 |  31.49%|  48.88%
 70.3s|  1500 |   583 |103826 |  68.0 |   514M |  28 | 145 |1548 |1154 | 477 |  2 | 566 | 873 | 6.088653e+00 | 8.000000e+00 |  31.39%|  49.30%
 71.7s|  1600 |   603 |108492 |  66.6 |   514M |  29 | 145 |1549 |1154 | 488 |  2 | 575 | 882 | 6.100580e+00 | 8.000000e+00 |  31.14%|  49.63%
 time | node  | left  |LP iter|LP it/n|mem/heur|mdpt |vars |cons |rows |cuts |sepa|confs|strbr|  dualbound   | primalbound  |  gap   | compl. 
 72.8s|  1700 |   615 |112216 |  64.9 |   516M |  29 | 145 |1554 |1154 | 515 |  1 | 587 | 892 | 6.132734e+00 | 8.000000e+00 |  30.45%|  50.78%
 74.6s|  1800 |   639 |116388 |  63.6 |   517M |  29 | 145 |1556 |1154 | 534 |  0 | 598 | 901 | 6.132734e+00 | 8.000000e+00 |  30.45%|  51.06%
 76.1s|  1900 |   651 |120217 |  62.3 |   520M |  29 | 145 |1557 |1150 | 553 |  0 | 605 | 908 | 6.157501e+00 | 8.000000e+00 |  29.92%|  52.16%
 77.8s|  2000 |   671 |123888 |  61.0 |   520M |  29 | 145 |1559 |1155 | 569 |  1 | 616 | 916 | 6.181723e+00 | 8.000000e+00 |  29.41%|  52.96%
 79.1s|  2100 |   689 |127604 |  59.9 |   520M |  29 | 145 |1558 |1157 | 584 |  7 | 619 | 918 | 6.185792e+00 | 8.000000e+00 |  29.33%|  53.90%
 80.2s|  2200 |   699 |131161 |  58.8 |   520M |  29 | 145 |1555 |1149 | 599 |  0 | 621 | 918 | 6.239327e+00 | 8.000000e+00 |  28.22%|  54.76%
 81.1s|  2300 |   707 |134591 |  57.7 |   520M |  29 | 145 |1555 |1149 | 609 |  1 | 625 | 922 | 6.239993e+00 | 8.000000e+00 |  28.21%|  55.32%
 82.0s|  2400 |   719 |137668 |  56.6 |   521M |  29 | 145 |1557 |1154 | 630 |  0 | 631 | 926 | 6.243198e+00 | 8.000000e+00 |  28.14%|  55.76%
 82.7s|  2500 |   727 |140424 |  55.4 |   521M |  29 | 145 |1558 |1149 | 640 |  1 | 635 | 929 | 6.261964e+00 | 8.000000e+00 |  27.76%|  56.73%
 84.1s|  2600 |   723 |143455 |  54.5 |   521M |  29 | 145 |1558 |1149 | 665 |  1 | 639 | 933 | 6.270040e+00 | 8.000000e+00 |  27.59%|  57.10%
 85.1s|  2700 |   715 |145784 |  53.3 |   521M |  30 | 145 |1556 |1154 | 682 |  0 | 642 | 936 | 6.270343e+00 | 8.000000e+00 |  27.58%|  58.17%
 86.0s|  2800 |   707 |148166 |  52.3 |   521M |  30 | 145 |1556 |1156 | 692 |  1 | 644 | 938 | 6.294140e+00 | 8.000000e+00 |  27.10%|  59.04%
 86.8s|  2900 |   703 |150433 |  51.2 |   521M |  30 | 145 |1555 |1154 | 698 |  0 | 648 | 944 | 6.308772e+00 | 8.000000e+00 |  26.81%|  59.77%
 87.7s|  3000 |   691 |152518 |  50.2 |   521M |  30 | 145 |1556 |1154 | 703 |  0 | 651 | 950 | 6.315232e+00 | 8.000000e+00 |  26.68%|  59.90%
 88.7s|  3100 |   677 |155037 |  49.4 |   521M |  30 | 145 |1554 |1154 | 710 |  1 | 652 | 951 | 6.344295e+00 | 8.000000e+00 |  26.10%|  60.48%
 time | node  | left  |LP iter|LP it/n|mem/heur|mdpt |vars |cons |rows |cuts |sepa|confs|strbr|  dualbound   | primalbound  |  gap   | compl. 
 89.4s|  3200 |   659 |157120 |  48.5 |   522M |  30 | 145 |1553 |1154 | 725 |  0 | 655 | 954 | 6.366467e+00 | 8.000000e+00 |  25.66%|  61.88%
 89.9s|  3300 |   643 |158791 |  47.6 |   522M |  30 | 145 |1553 |1154 | 729 |  0 | 655 | 955 | 6.375580e+00 | 8.000000e+00 |  25.48%|  62.31%
 90.4s|  3400 |   625 |160856 |  46.8 |   522M |  30 | 145 |1551 |1156 | 734 |  1 | 656 | 958 | 6.377889e+00 | 8.000000e+00 |  25.43%|  62.58%
 91.2s|  3500 |   613 |162965 |  46.0 |   522M |  30 | 145 |1549 |1154 | 738 |  0 | 656 | 959 | 6.381890e+00 | 8.000000e+00 |  25.35%|  63.29%
 91.9s|  3600 |   589 |164693 |  45.2 |   522M |  30 | 145 |1549 |1155 | 740 |  0 | 657 | 960 | 6.402657e+00 | 8.000000e+00 |  24.95%|  64.10%
 92.6s|  3700 |   571 |166526 |  44.5 |   522M |  30 | 145 |1548 |1154 | 745 |  0 | 657 | 960 | 6.432015e+00 | 8.000000e+00 |  24.38%|  64.72%
 93.6s|  3800 |   541 |168378 |  43.8 |   522M |  30 | 145 |1549 |1153 | 754 |  0 | 661 | 962 | 6.449535e+00 | 8.000000e+00 |  24.04%|  65.28%
 94.2s|  3900 |   505 |170120 |  43.1 |   522M |  30 | 145 |1550 |1154 | 759 |  0 | 663 | 963 | 6.470917e+00 | 8.000000e+00 |  23.63%|  66.48%
 94.8s|  4000 |   455 |171750 |  42.5 |   522M |  30 | 145 |1550 |1156 | 759 |  0 | 666 | 965 | 6.507891e+00 | 8.000000e+00 |  22.93%|  67.36%
 95.7s|  4100 |   417 |173314 |  41.8 |   522M |  30 | 145 |1547 |1155 | 764 |  0 | 666 | 965 | 6.517984e+00 | 8.000000e+00 |  22.74%|  67.83%
 96.5s|  4200 |   377 |175091 |  41.2 |   522M |  30 | 145 |1546 |1155 | 764 |  0 | 666 | 966 | 6.536746e+00 | 8.000000e+00 |  22.39%|  68.71%
 97.2s|  4300 |   337 |176594 |  40.6 |   522M |  30 | 145 |1544 |1154 | 765 |  0 | 667 | 967 | 6.561180e+00 | 8.000000e+00 |  21.93%|  69.60%
 97.7s|  4400 |   293 |178454 |  40.1 |   522M |  30 | 145 |1545 |1151 | 766 |  0 | 668 | 967 | 6.581205e+00 | 8.000000e+00 |  21.56%|  70.43%
 98.1s|  4500 |   238 |179821 |  39.5 |   522M |  30 | 145 |1543 |1154 | 766 |  0 | 669 | 968 | 6.583953e+00 | 8.000000e+00 |  21.51%|  72.13%
 98.5s|  4600 |   160 |181007 |  38.9 |   522M |  30 | 145 |1537 |1154 | 769 |  0 | 669 | 968 | 6.600389e+00 | 8.000000e+00 |  21.20%|  74.27%
 time | node  | left  |LP iter|LP it/n|mem/heur|mdpt |vars |cons |rows |cuts |sepa|confs|strbr|  dualbound   | primalbound  |  gap   | compl. 
 98.9s|  4700 |    60 |181980 |  38.3 |   522M |  30 | 145 |1531 |1161 | 769 |  0 | 669 | 968 | 6.682151e+00 | 8.000000e+00 |  19.72%|  76.71%

SCIP Status        : problem is solved [optimal solution found]
Solving Time (sec) : 99.08
Solving Nodes      : 4760 (total of 4762 nodes in 3 runs)
Primal Bound       : +8.00000000000000e+00 (337 solutions)
Dual Bound         : +8.00000000000000e+00
Gap                : 0.00 %
Solve Status: optimal
Solve Time: 99.10 seconds
